
Gurobi 11.0.3 (mac64[x86]) logging started Tue Apr 15 15:09:06 2025

Set parameter LogFile to value "Results/SanityCheck/try_12_big.log"
Set parameter TimeLimit to value 84600
Set parameter Method to value 2
Set parameter Crossover to value 0
Set parameter BarHomogeneous to value 1
Set parameter BarConvTol to value 1e-10
Gurobi Optimizer version 11.0.3 build v11.0.3rc0 (mac64[x86] - Darwin 23.4.0 23E214)

CPU model: Intel(R) Core(TM) i7-1060NG7 CPU @ 1.20GHz
Thread count: 4 physical cores, 8 logical processors, using up to 8 threads

Optimize a model with 1496320 rows, 1917920 columns and 7073808 nonzeros
Model fingerprint: 0x9c0d2935
Coefficient statistics:
  Matrix range     [2e-01, 1e+00]
  Objective range  [6e-05, 5e+00]
  Bounds range     [0e+00, 0e+00]
  RHS range        [1e-02, 3e+03]
Presolve removed 1211792 rows and 1390896 columns
Presolve time: 4.76s
Presolved: 284528 rows, 527120 columns, 1878608 nonzeros
Ordering time: 0.50s

Barrier statistics:
 AA' NZ     : 2.680e+05
 Factor NZ  : 5.518e+06 (roughly 80 MB of memory)
 Factor Ops : 3.559e+09 (less than 1 second per iteration)
 Threads    : 4

                  Objective                Residual
Iter       Primal          Dual         Primal    Dual     Compl     Time
   0   8.45472673e+06  1.73151271e+11  1.48e+04 6.23e+03  4.07e+07     6s
   1  -1.48315287e+07  8.75824870e+10  4.16e+03 6.87e+03  1.33e+07     6s
   2  -1.63381387e+07  7.74088403e+09  9.87e+02 6.69e+02  1.74e+06     6s
   3  -1.54805324e+07  2.09750327e+09  5.66e+01 2.69e+01  1.04e+05     6s
   4  -6.64932925e+06  2.83275357e+08  2.17e+00 3.33e+00  6.85e+03     7s
   5  -4.16859729e+06  9.69546957e+06  7.97e-02 1.15e-01  2.60e+02     7s
   6  -3.84118111e+05  4.54674409e+05  5.97e-03 5.97e-03  1.27e+01     7s
   7   9.29313149e+03  5.77047093e+04  3.58e-04 1.75e-04  7.08e-01     7s
   8   2.63341277e+04  3.92018491e+04  7.39e-05 3.12e-05  1.85e-01     7s
   9   3.04188804e+04  3.49298845e+04  1.64e-05 1.34e-12  6.32e-02     8s
  10   3.17712702e+04  3.35206444e+04  4.07e-06 6.23e-13  2.30e-02     8s
  11   3.21206069e+04  3.30146261e+04  1.76e-06 3.45e-13  1.13e-02     8s
  12   3.23435250e+04  3.26632051e+04  5.49e-07 1.38e-13  3.90e-03     8s
  13   3.24482680e+04  3.25314085e+04  1.14e-07 7.74e-12  9.93e-04     8s
  14   3.24761556e+04  3.24924522e+04  1.71e-08 1.10e-11  1.93e-04     9s
  15   3.24804462e+04  3.24838351e+04  2.91e-08 2.35e-10  4.01e-05     9s
  16   3.24816278e+04  3.24827437e+04  3.90e-08 3.61e-10  1.32e-05     9s
  17   3.24820422e+04  3.24825860e+04  1.94e-08 3.90e-10  6.42e-06     9s
  18   3.24822210e+04  3.24825242e+04  1.09e-08 8.07e-11  3.58e-06    10s
  19   3.24823130e+04  3.24824850e+04  6.62e-09 1.44e-10  2.03e-06    10s
  20   3.24823870e+04  3.24824695e+04  3.14e-09 4.10e-10  9.74e-07    10s
  21   3.24824356e+04  3.24824591e+04  8.40e-10 8.05e-09  2.77e-07    10s
  22   3.24824517e+04  3.24824537e+04  4.60e-10 2.81e-08  2.44e-08    10s
  23   3.24824517e+04  3.24824535e+04  1.80e-09 2.89e-10  2.10e-08    11s
  24   3.24824535e+04  3.24824535e+04  4.40e-10 1.20e-11  2.25e-11    11s

Barrier solved model in 24 iterations and 10.93 seconds (7.91 work units)
Optimal objective 3.24824535e+04

